--------------------------------------------------
s SATISFIABLE
benchmarks_SAT/INST_16x16/0/inst16x16_0_0.cnf : 51 ms.
--------------------------------------------------
s SATISFIABLE
benchmarks_SAT/INST_16x16/0/inst16x16_0_10.cnf : 32 ms.
--------------------------------------------------
s SATISFIABLE
benchmarks_SAT/INST_16x16/0/inst16x16_0_11.cnf : 30 ms.
--------------------------------------------------
s SATISFIABLE
benchmarks_SAT/INST_16x16/0/inst16x16_0_12.cnf : 32 ms.
--------------------------------------------------
s SATISFIABLE
benchmarks_SAT/INST_16x16/0/inst16x16_0_13.cnf : 22 ms.
--------------------------------------------------
s SATISFIABLE
benchmarks_SAT/INST_16x16/0/inst16x16_0_14.cnf : 27 ms.
--------------------------------------------------
s SATISFIABLE
benchmarks_SAT/INST_16x16/0/inst16x16_0_15.cnf : 24 ms.
--------------------------------------------------
s SATISFIABLE
benchmarks_SAT/INST_16x16/0/inst16x16_0_16.cnf : 23 ms.
--------------------------------------------------
s SATISFIABLE
benchmarks_SAT/INST_16x16/0/inst16x16_0_17.cnf : 26 ms.
--------------------------------------------------
s SATISFIABLE
benchmarks_SAT/INST_16x16/0/inst16x16_0_18.cnf : 32 ms.
--------------------------------------------------
s SATISFIABLE
benchmarks_SAT/INST_16x16/0/inst16x16_0_19.cnf : 33 ms.
--------------------------------------------------
s SATISFIABLE
benchmarks_SAT/INST_16x16/0/inst16x16_0_1.cnf : 31 ms.
--------------------------------------------------
s SATISFIABLE
benchmarks_SAT/INST_16x16/0/inst16x16_0_20.cnf : 26 ms.
--------------------------------------------------
s SATISFIABLE
benchmarks_SAT/INST_16x16/0/inst16x16_0_21.cnf : 25 ms.
--------------------------------------------------
s SATISFIABLE
benchmarks_SAT/INST_16x16/0/inst16x16_0_22.cnf : 26 ms.
--------------------------------------------------
s SATISFIABLE
benchmarks_SAT/INST_16x16/0/inst16x16_0_23.cnf : 26 ms.
--------------------------------------------------
s SATISFIABLE
benchmarks_SAT/INST_16x16/0/inst16x16_0_24.cnf : 25 ms.
--------------------------------------------------
s SATISFIABLE
benchmarks_SAT/INST_16x16/0/inst16x16_0_25.cnf : 25 ms.
--------------------------------------------------
s SATISFIABLE
benchmarks_SAT/INST_16x16/0/inst16x16_0_26.cnf : 26 ms.
--------------------------------------------------
s SATISFIABLE
benchmarks_SAT/INST_16x16/0/inst16x16_0_27.cnf : 25 ms.
--------------------------------------------------
s SATISFIABLE
benchmarks_SAT/INST_16x16/0/inst16x16_0_28.cnf : 25 ms.
--------------------------------------------------
s SATISFIABLE
benchmarks_SAT/INST_16x16/0/inst16x16_0_29.cnf : 24 ms.
--------------------------------------------------
s SATISFIABLE
benchmarks_SAT/INST_16x16/0/inst16x16_0_2.cnf : 25 ms.
--------------------------------------------------
s SATISFIABLE
benchmarks_SAT/INST_16x16/0/inst16x16_0_30.cnf : 25 ms.
--------------------------------------------------
s SATISFIABLE
benchmarks_SAT/INST_16x16/0/inst16x16_0_31.cnf : 24 ms.
--------------------------------------------------
s SATISFIABLE
benchmarks_SAT/INST_16x16/0/inst16x16_0_32.cnf : 25 ms.
--------------------------------------------------
s SATISFIABLE
benchmarks_SAT/INST_16x16/0/inst16x16_0_33.cnf : 27 ms.
--------------------------------------------------
s SATISFIABLE
benchmarks_SAT/INST_16x16/0/inst16x16_0_34.cnf : 26 ms.
--------------------------------------------------
s SATISFIABLE
benchmarks_SAT/INST_16x16/0/inst16x16_0_35.cnf : 26 ms.
--------------------------------------------------
s SATISFIABLE
benchmarks_SAT/INST_16x16/0/inst16x16_0_36.cnf : 25 ms.
--------------------------------------------------
s SATISFIABLE
benchmarks_SAT/INST_16x16/0/inst16x16_0_37.cnf : 27 ms.
--------------------------------------------------
s SATISFIABLE
benchmarks_SAT/INST_16x16/0/inst16x16_0_38.cnf : 30 ms.
--------------------------------------------------
s SATISFIABLE
benchmarks_SAT/INST_16x16/0/inst16x16_0_39.cnf : 27 ms.
--------------------------------------------------
s SATISFIABLE
benchmarks_SAT/INST_16x16/0/inst16x16_0_3.cnf : 32 ms.
--------------------------------------------------
s SATISFIABLE
benchmarks_SAT/INST_16x16/0/inst16x16_0_40.cnf : 25 ms.
--------------------------------------------------
s SATISFIABLE
benchmarks_SAT/INST_16x16/0/inst16x16_0_41.cnf : 25 ms.
--------------------------------------------------
s SATISFIABLE
benchmarks_SAT/INST_16x16/0/inst16x16_0_42.cnf : 28 ms.
--------------------------------------------------
s SATISFIABLE
benchmarks_SAT/INST_16x16/0/inst16x16_0_43.cnf : 25 ms.
--------------------------------------------------
s SATISFIABLE
benchmarks_SAT/INST_16x16/0/inst16x16_0_44.cnf : 27 ms.
--------------------------------------------------
s SATISFIABLE
benchmarks_SAT/INST_16x16/0/inst16x16_0_45.cnf : 24 ms.
--------------------------------------------------
s SATISFIABLE
benchmarks_SAT/INST_16x16/0/inst16x16_0_46.cnf : 25 ms.
--------------------------------------------------
s SATISFIABLE
benchmarks_SAT/INST_16x16/0/inst16x16_0_47.cnf : 24 ms.
--------------------------------------------------
s SATISFIABLE
benchmarks_SAT/INST_16x16/0/inst16x16_0_48.cnf : 25 ms.
--------------------------------------------------
s SATISFIABLE
benchmarks_SAT/INST_16x16/0/inst16x16_0_49.cnf : 24 ms.
--------------------------------------------------
s SATISFIABLE
benchmarks_SAT/INST_16x16/0/inst16x16_0_4.cnf : 24 ms.
--------------------------------------------------
s SATISFIABLE
benchmarks_SAT/INST_16x16/0/inst16x16_0_50.cnf : 24 ms.
--------------------------------------------------
s SATISFIABLE
benchmarks_SAT/INST_16x16/0/inst16x16_0_51.cnf : 25 ms.
--------------------------------------------------
s SATISFIABLE
benchmarks_SAT/INST_16x16/0/inst16x16_0_52.cnf : 24 ms.
--------------------------------------------------
s SATISFIABLE
benchmarks_SAT/INST_16x16/0/inst16x16_0_53.cnf : 24 ms.
--------------------------------------------------
s SATISFIABLE
benchmarks_SAT/INST_16x16/0/inst16x16_0_54.cnf : 24 ms.
--------------------------------------------------
s SATISFIABLE
benchmarks_SAT/INST_16x16/0/inst16x16_0_55.cnf : 26 ms.
--------------------------------------------------
s SATISFIABLE
benchmarks_SAT/INST_16x16/0/inst16x16_0_56.cnf : 25 ms.
--------------------------------------------------
s SATISFIABLE
benchmarks_SAT/INST_16x16/0/inst16x16_0_57.cnf : 26 ms.
--------------------------------------------------
s SATISFIABLE
benchmarks_SAT/INST_16x16/0/inst16x16_0_58.cnf : 34 ms.
--------------------------------------------------
s SATISFIABLE
benchmarks_SAT/INST_16x16/0/inst16x16_0_59.cnf : 31 ms.
--------------------------------------------------
s SATISFIABLE
benchmarks_SAT/INST_16x16/0/inst16x16_0_5.cnf : 30 ms.
--------------------------------------------------
s SATISFIABLE
benchmarks_SAT/INST_16x16/0/inst16x16_0_60.cnf : 25 ms.
--------------------------------------------------
s SATISFIABLE
benchmarks_SAT/INST_16x16/0/inst16x16_0_61.cnf : 31 ms.
--------------------------------------------------
s SATISFIABLE
benchmarks_SAT/INST_16x16/0/inst16x16_0_62.cnf : 25 ms.
--------------------------------------------------
s SATISFIABLE
benchmarks_SAT/INST_16x16/0/inst16x16_0_63.cnf : 25 ms.
--------------------------------------------------
s SATISFIABLE
benchmarks_SAT/INST_16x16/0/inst16x16_0_64.cnf : 25 ms.
--------------------------------------------------
s SATISFIABLE
benchmarks_SAT/INST_16x16/0/inst16x16_0_65.cnf : 27 ms.
--------------------------------------------------
s SATISFIABLE
benchmarks_SAT/INST_16x16/0/inst16x16_0_66.cnf : 25 ms.
--------------------------------------------------
s SATISFIABLE
benchmarks_SAT/INST_16x16/0/inst16x16_0_67.cnf : 33 ms.
--------------------------------------------------
s SATISFIABLE
benchmarks_SAT/INST_16x16/0/inst16x16_0_68.cnf : 25 ms.
--------------------------------------------------
s SATISFIABLE
benchmarks_SAT/INST_16x16/0/inst16x16_0_69.cnf : 31 ms.
--------------------------------------------------
s SATISFIABLE
benchmarks_SAT/INST_16x16/0/inst16x16_0_6.cnf : 26 ms.
--------------------------------------------------
s SATISFIABLE
benchmarks_SAT/INST_16x16/0/inst16x16_0_70.cnf : 30 ms.
--------------------------------------------------
s SATISFIABLE
benchmarks_SAT/INST_16x16/0/inst16x16_0_71.cnf : 31 ms.
--------------------------------------------------
s SATISFIABLE
benchmarks_SAT/INST_16x16/0/inst16x16_0_72.cnf : 34 ms.
--------------------------------------------------
s SATISFIABLE
benchmarks_SAT/INST_16x16/0/inst16x16_0_73.cnf : 25 ms.
--------------------------------------------------
s SATISFIABLE
benchmarks_SAT/INST_16x16/0/inst16x16_0_74.cnf : 27 ms.
--------------------------------------------------
s SATISFIABLE
benchmarks_SAT/INST_16x16/0/inst16x16_0_75.cnf : 31 ms.
--------------------------------------------------
s SATISFIABLE
benchmarks_SAT/INST_16x16/0/inst16x16_0_76.cnf : 28 ms.
--------------------------------------------------
s SATISFIABLE
benchmarks_SAT/INST_16x16/0/inst16x16_0_77.cnf : 25 ms.
--------------------------------------------------
s SATISFIABLE
benchmarks_SAT/INST_16x16/0/inst16x16_0_78.cnf : 32 ms.
--------------------------------------------------
s SATISFIABLE
benchmarks_SAT/INST_16x16/0/inst16x16_0_79.cnf : 24 ms.
--------------------------------------------------
s SATISFIABLE
benchmarks_SAT/INST_16x16/0/inst16x16_0_7.cnf : 32 ms.
--------------------------------------------------
s SATISFIABLE
benchmarks_SAT/INST_16x16/0/inst16x16_0_80.cnf : 24 ms.
--------------------------------------------------
s SATISFIABLE
benchmarks_SAT/INST_16x16/0/inst16x16_0_81.cnf : 31 ms.
--------------------------------------------------
s SATISFIABLE
benchmarks_SAT/INST_16x16/0/inst16x16_0_82.cnf : 24 ms.
--------------------------------------------------
s SATISFIABLE
benchmarks_SAT/INST_16x16/0/inst16x16_0_83.cnf : 25 ms.
--------------------------------------------------
s SATISFIABLE
benchmarks_SAT/INST_16x16/0/inst16x16_0_84.cnf : 32 ms.
--------------------------------------------------
s SATISFIABLE
benchmarks_SAT/INST_16x16/0/inst16x16_0_85.cnf : 25 ms.
--------------------------------------------------
s SATISFIABLE
benchmarks_SAT/INST_16x16/0/inst16x16_0_86.cnf : 31 ms.
--------------------------------------------------
s SATISFIABLE
benchmarks_SAT/INST_16x16/0/inst16x16_0_87.cnf : 29 ms.
--------------------------------------------------
s SATISFIABLE
benchmarks_SAT/INST_16x16/0/inst16x16_0_88.cnf : 30 ms.
--------------------------------------------------
s SATISFIABLE
benchmarks_SAT/INST_16x16/0/inst16x16_0_89.cnf : 25 ms.
--------------------------------------------------
s SATISFIABLE
benchmarks_SAT/INST_16x16/0/inst16x16_0_8.cnf : 25 ms.
--------------------------------------------------
s SATISFIABLE
benchmarks_SAT/INST_16x16/0/inst16x16_0_90.cnf : 30 ms.
--------------------------------------------------
s SATISFIABLE
benchmarks_SAT/INST_16x16/0/inst16x16_0_91.cnf : 27 ms.
--------------------------------------------------
s SATISFIABLE
benchmarks_SAT/INST_16x16/0/inst16x16_0_92.cnf : 32 ms.
--------------------------------------------------
s SATISFIABLE
benchmarks_SAT/INST_16x16/0/inst16x16_0_93.cnf : 25 ms.
--------------------------------------------------
s SATISFIABLE
benchmarks_SAT/INST_16x16/0/inst16x16_0_94.cnf : 24 ms.
--------------------------------------------------
s SATISFIABLE
benchmarks_SAT/INST_16x16/0/inst16x16_0_95.cnf : 31 ms.
--------------------------------------------------
s SATISFIABLE
benchmarks_SAT/INST_16x16/0/inst16x16_0_96.cnf : 25 ms.
--------------------------------------------------
s SATISFIABLE
benchmarks_SAT/INST_16x16/0/inst16x16_0_97.cnf : 31 ms.
--------------------------------------------------
s SATISFIABLE
benchmarks_SAT/INST_16x16/0/inst16x16_0_98.cnf : 24 ms.
--------------------------------------------------
s SATISFIABLE
benchmarks_SAT/INST_16x16/0/inst16x16_0_99.cnf : 24 ms.
--------------------------------------------------
s SATISFIABLE
benchmarks_SAT/INST_16x16/0/inst16x16_0_9.cnf : 33 ms.
